100
100
98
96
95
95
94
94
92
91
89
88
86
85
84
84
83
83
82
82
81
80
80
79
77
77
77
75
75
75
75
75
72
71
70
69
68
68
66
66
66
66
64
64
64
64
63
62
62
61
59
58
58
58
57
56
56
56
56
55
55
54
54
53
51
51
51
50
50
49
49
49
48
48
48
45
45
44
43
41
40
40
36
34
33
32
32
32
29
27
27
27
27
25
25
25
24
23
23
21
21
20
